benchmarks_vrp/att48_8.vrp
NAME: att48_8
TYPE: CVRP
COMMENT: (Rinaldi,Yarrow/Araque) - Cluster Nr.8
DIMENSION: 5
CAPACITY: 15
EDGE_WEIGHT_TYPE: ATT
NODE_COORD_TYPE: TWOD_COORDS
NODE_COORD_SECTION: 
1 6272 2992
3 6462 2634
5 5584 3081
2 6823 4674
4 5972 2555
DEPOT_SECTION: 
2
-1
DEMAND_SECTION: 
4 1
1 1
3 1
2 0
5 1
EOF
