benchmarks_vrp/att48_8.tour
NAME: att48_8 solution
TYPE: TOUR
TOUR_SECTION:
2 1 3 4 5 -1
-1
EOF